
******************************************************************************
This program contains Ipopt, a library for large-scale nonlinear optimization.
 Ipopt is released as open source code under the Eclipse Public License (EPL).
         For more information visit http://projects.coin-or.org/Ipopt
******************************************************************************

This is Ipopt version 3.12.6, running with linear solver ma57.

Number of nonzeros in equality constraint Jacobian...:       34
Number of nonzeros in inequality constraint Jacobian.:        8
Number of nonzeros in Lagrangian Hessian.............:       19

Total number of variables............................:        9
                     variables with only lower bounds:        2
                variables with lower and upper bounds:        7
                     variables with only upper bounds:        0
Total number of equality constraints.................:        6
Total number of inequality constraints...............:        4
        inequality constraints with only lower bounds:        4
   inequality constraints with lower and upper bounds:        0
        inequality constraints with only upper bounds:        0

iter    objective    inf_pr   inf_du lg(mu)  ||d||  lg(rg) alpha_du alpha_pr  ls
   0  4.9999950e-02 4.42e+04 5.00e-01  -1.0 0.00e+00    -  0.00e+00 0.00e+00   0
   1  2.5235521e+02 4.15e+04 1.36e+05  -1.0 8.41e+02    -  1.18e-05 6.00e-02h  5
   2  4.6454544e+02 3.91e+04 1.24e+05  -1.0 8.49e+04    -  1.06e-02 5.29e-02h  3
   3  6.4570086e+02 3.71e+04 1.01e+05  -1.0 1.40e+05    -  1.69e-02 4.74e-02h  1
   4  6.5849156e+02 3.69e+04 1.01e+05  -1.0 1.94e+05    -  1.51e-01 3.48e-03h  1
   5  9.8464203e+02 3.37e+04 8.74e+04  -1.0 1.97e+05    -  7.49e-02 8.81e-02H  1
   6  1.2316679e+03 3.13e+04 7.84e+04  -1.0 2.77e+05    -  1.48e-01 7.13e-02h  2
   7  1.4159186e+03 2.96e+04 7.24e+04  -1.0 3.26e+05    -  6.85e-01 5.60e-02h  3
   8  1.6944729e+03 2.70e+04 6.23e+04  -1.0 3.56e+05    -  3.43e-01 8.74e-02h  4
   9  1.9667315e+03 2.46e+04 5.28e+04  -1.0 3.93e+05    -  7.34e-01 9.05e-02h  4
iter    objective    inf_pr   inf_du lg(mu)  ||d||  lg(rg) alpha_du alpha_pr  ls
  10  4.4683079e+03 6.76e+03 1.73e+05  -1.0 4.20e+05    -  3.95e-01 7.54e-01H  1
  11  5.5972194e+03 2.19e+02 2.15e+05  -1.0 2.77e+05    -  1.00e+00 1.00e+00H  1
  12  5.5910986e+03 2.72e+00 5.08e+03  -1.0 2.69e+04    -  9.87e-01 1.00e+00h  1
  13  5.3644088e+03 3.01e+02 5.91e+02  -1.0 2.68e+05    -  8.26e-01 1.00e+00f  1
  14  5.3593903e+03 4.87e+01 5.49e+00  -1.0 1.67e+05    -  1.00e+00 1.00e+00h  1
  15  5.3622270e+03 5.99e-01 2.43e-01  -1.0 2.13e+04    -  1.00e+00 1.00e+00h  1
  16  5.3622681e+03 4.90e-04 2.15e-04  -1.0 5.34e+02    -  1.00e+00 1.00e+00h  1
  17  5.3620758e+03 2.96e-03 1.70e-03  -2.5 2.20e+02    -  1.00e+00 1.00e+00h  1
Reallocating memory for MA57: lfact (522)
  18  5.3620748e+03 8.23e-08 5.26e-08  -2.5 1.96e+00    -  1.00e+00 1.00e+00h  1
  19  5.3620695e+03 2.30e-06 1.29e-06  -3.8 6.19e+00    -  1.00e+00 1.00e+00f  1
iter    objective    inf_pr   inf_du lg(mu)  ||d||  lg(rg) alpha_du alpha_pr  ls
  20  5.3620692e+03 7.12e-09 3.97e-09  -5.7 3.45e-01    -  1.00e+00 1.00e+00h  1
  21  5.3620692e+03 3.50e-11 1.23e-12  -8.6 4.27e-03    -  1.00e+00 1.00e+00h  1

Number of Iterations....: 21

                                   (scaled)                 (unscaled)
Objective...............:   5.3620691612088585e+03    5.3620691612088585e+03
Dual infeasibility......:   1.2278602505827707e-12    1.2278602505827707e-12
Constraint violation....:   3.5015546018257737e-11    3.5015546018257737e-11
Complementarity.........:   2.5061533337798484e-09    2.5061533337798484e-09
Overall NLP error.......:   2.5061533337798484e-09    2.5061533337798484e-09


Number of objective function evaluations             = 52
Number of objective gradient evaluations             = 22
Number of equality constraint evaluations            = 52
Number of inequality constraint evaluations          = 52
Number of equality constraint Jacobian evaluations   = 22
Number of inequality constraint Jacobian evaluations = 22
Number of Lagrangian Hessian evaluations             = 21
Total CPU secs in IPOPT (w/o function evaluations)   =      0.007
Total CPU secs in NLP function evaluations           =      0.000

EXIT: Optimal Solution Found.

************************ CUTEst statistics ************************


 Package used            :  IPOPT
 Problem                 :  HS109     
 # variables             =               9
 # constraints           =              10
 # objective functions   =        0.7500000E+02
 # objective gradients   =        0.2300000E+02
 # objective Hessians    =        0.2200000E+02
 # Hessian-vector prdct  =        0.0000000E+00
 # constraints functions =        0.7600000E+02
 # constraints gradients =        0.2400000E+02
 # constraints Hessians  =        0.2200000E+02
 Exit code               =               0
 Final f                 =   0.5362069E+04
 Set up time             =            0.00 seconds
 Solve time              =            0.04 seconds


******************************************************************

System Time =       0.0099999998 s.
